50

100 40 268
97 38 278
95 43 219
95 5 162
95 48 206
95 31 262
94 16 193
93 45 179
93 32 185
91 15 245
90 33 194
89 2 205
87 19 198
83 19 141
82 21 152
79 23 227
79 36 223
78 7 212
77 25 172
77 14 196
74 37 292
71 32 223
69 33 259
68 32 144
68 21 199
65 21 263
65 4 299
64 3 159
61 29 151
58 27 254
55 13 233
55 28 262
54 14 238
53 2 289
53 2 145
51 11 181
51 22 210
49 10 277
46 1 284
44 7 221
42 7 186
41 13 297
39 18 147
38 19 140
37 5 272
37 1 296
37 12 235
35 6 160
33 11 216
31 8 249
